* #variable= 192 #constraint= 64 #product= 384 sizeproduct= 768
min: -1 x1 x4 -1 x1 x22 +1 x1 x25 -1 x1 x169 -1 x2 x5 -1 x2 x23 +1 x2 x26 -1 x2 x170 -1 x3 x6 -1 x3 x24 +1 x3 x27 -1 x3 x171 -1 x4 x7 -1 x4 x28 +1 x4 x172 -1 x5 x8 -1 x5 x29 +1 x5 x173 -1 x6 x9 -1 x6 x30 +1 x6 x174 -1 x7 x10 +1 x7 x31 -1 x7 x175 -1 x8 x11 +1 x8 x32 -1 x8 x176 -1 x9 x12 +1 x9 x33 -1 x9 x177 -1 x10 x13 -1 x10 x34 -1 x10 x178 -1 x11 x14 -1 x11 x35 -1 x11 x179 -1 x12 x15 -1 x12 x36 -1 x12 x180 -1 x13 x16 -1 x13 x37 +1 x13 x181 -1 x14 x17 -1 x14 x38 +1 x14 x182 -1 x15 x18 -1 x15 x39 +1 x15 x183 -1 x16 x19 -1 x16 x40 -1 x16 x184 -1 x17 x20 -1 x17 x41 -1 x17 x185 -1 x18 x21 -1 x18 x42 -1 x18 x186 -1 x19 x22 +1 x19 x43 +1 x19 x187 -1 x20 x23 +1 x20 x44 +1 x20 x188 -1 x21 x24 +1 x21 x45 +1 x21 x189 -1 x22 x46 -1 x22 x190 -1 x23 x47 -1 x23 x191 -1 x24 x48 -1 x24 x192 -1 x25 x28 -1 x25 x46 -1 x25 x49 -1 x26 x29 -1 x26 x47 -1 x26 x50 -1 x27 x30 -1 x27 x48 -1 x27 x51 +1 x28 x31 +1 x28 x52 +1 x29 x32 +1 x29 x53 +1 x30 x33 +1 x30 x54 +1 x31 x34 +1 x31 x55 +1 x32 x35 +1 x32 x56 +1 x33 x36 +1 x33 x57 +1 x34 x37 -1 x34 x58 +1 x35 x38 -1 x35 x59 +1 x36 x39 -1 x36 x60 -1 x37 x40 -1 x37 x61 -1 x38 x41 -1 x38 x62 -1 x39 x42 -1 x39 x63 +1 x40 x43 +1 x40 x64 +1 x41 x44 +1 x41 x65 +1 x42 x45 +1 x42 x66 +1 x43 x46 -1 x43 x67 +1 x44 x47 -1 x44 x68 +1 x45 x48 -1 x45 x69 +1 x46 x70 +1 x47 x71 +1 x48 x72 +1 x49 x52 -1 x49 x70 +1 x49 x73 +1 x50 x53 -1 x50 x71 +1 x50 x74 +1 x51 x54 -1 x51 x72 +1 x51 x75 -1 x52 x55 -1 x52 x76 -1 x53 x56 -1 x53 x77 -1 x54 x57 -1 x54 x78 -1 x55 x58 -1 x55 x79 -1 x56 x59 -1 x56 x80 -1 x57 x60 -1 x57 x81 -1 x58 x61 +1 x58 x82 -1 x59 x62 +1 x59 x83 -1 x60 x63 +1 x60 x84 +1 x61 x64 -1 x61 x85 +1 x62 x65 -1 x62 x86 +1 x63 x66 -1 x63 x87 +1 x64 x67 +1 x64 x88 +1 x65 x68 +1 x65 x89 +1 x66 x69 +1 x66 x90 -1 x67 x70 -1 x67 x91 -1 x68 x71 -1 x68 x92 -1 x69 x72 -1 x69 x93 +1 x70 x94 +1 x71 x95 +1 x72 x96 -1 x73 x76 +1 x73 x94 +1 x73 x97 -1 x74 x77 +1 x74 x95 +1 x74 x98 -1 x75 x78 +1 x75 x96 +1 x75 x99 -1 x76 x79 -1 x76 x100 -1 x77 x80 -1 x77 x101 -1 x78 x81 -1 x78 x102 -1 x79 x82 +1 x79 x103 -1 x80 x83 +1 x80 x104 -1 x81 x84 +1 x81 x105 +1 x82 x85 +1 x82 x106 +1 x83 x86 +1 x83 x107 +1 x84 x87 +1 x84 x108 +1 x85 x88 +1 x85 x109 +1 x86 x89 +1 x86 x110 +1 x87 x90 +1 x87 x111 -1 x88 x91 +1 x88 x112 -1 x89 x92 +1 x89 x113 -1 x90 x93 +1 x90 x114 +1 x91 x94 -1 x91 x115 +1 x92 x95 -1 x92 x116 +1 x93 x96 -1 x93 x117 -1 x94 x118 -1 x95 x119 -1 x96 x120 +1 x97 x100 +1 x97 x118 +1 x97 x121 +1 x98 x101 +1 x98 x119 +1 x98 x122 +1 x99 x102 +1 x99 x120 +1 x99 x123 +1 x100 x103 -1 x100 x124 +1 x101 x104 -1 x101 x125 +1 x102 x105 -1 x102 x126 +1 x103 x106 +1 x103 x127 +1 x104 x107 +1 x104 x128 +1 x105 x108 +1 x105 x129 +1 x106 x109 +1 x106 x130 +1 x107 x110 +1 x107 x131 +1 x108 x111 +1 x108 x132 -1 x109 x112 -1 x109 x133 -1 x110 x113 -1 x110 x134 -1 x111 x114 -1 x111 x135 +1 x112 x115 -1 x112 x136 +1 x113 x116 -1 x113 x137 +1 x114 x117 -1 x114 x138 -1 x115 x118 +1 x115 x139 -1 x116 x119 +1 x116 x140 -1 x117 x120 +1 x117 x141 -1 x118 x142 -1 x119 x143 -1 x120 x144 -1 x121 x124 +1 x121 x142 +1 x121 x145 -1 x122 x125 +1 x122 x143 +1 x122 x146 -1 x123 x126 +1 x123 x144 +1 x123 x147 +1 x124 x127 -1 x124 x148 +1 x125 x128 -1 x125 x149 +1 x126 x129 -1 x126 x150 -1 x127 x130 +1 x127 x151 -1 x128 x131 +1 x128 x152 -1 x129 x132 +1 x129 x153 -1 x130 x133 +1 x130 x154 -1 x131 x134 +1 x131 x155 -1 x132 x135 +1 x132 x156 +1 x133 x136 +1 x133 x157 +1 x134 x137 +1 x134 x158 +1 x135 x138 +1 x135 x159 -1 x136 x139 +1 x136 x160 -1 x137 x140 +1 x137 x161 -1 x138 x141 +1 x138 x162 +1 x139 x142 -1 x139 x163 +1 x140 x143 -1 x140 x164 +1 x141 x144 -1 x141 x165 -1 x142 x166 -1 x143 x167 -1 x144 x168 +1 x145 x148 +1 x145 x166 -1 x145 x169 +1 x146 x149 +1 x146 x167 -1 x146 x170 +1 x147 x150 +1 x147 x168 -1 x147 x171 -1 x148 x151 -1 x148 x172 -1 x149 x152 -1 x149 x173 -1 x150 x153 -1 x150 x174 -1 x151 x154 +1 x151 x175 -1 x152 x155 +1 x152 x176 -1 x153 x156 +1 x153 x177 -1 x154 x157 -1 x154 x178 -1 x155 x158 -1 x155 x179 -1 x156 x159 -1 x156 x180 -1 x157 x160 +1 x157 x181 -1 x158 x161 +1 x158 x182 -1 x159 x162 +1 x159 x183 +1 x160 x163 +1 x160 x184 +1 x161 x164 +1 x161 x185 +1 x162 x165 +1 x162 x186 +1 x163 x166 +1 x163 x187 +1 x164 x167 +1 x164 x188 +1 x165 x168 +1 x165 x189 +1 x166 x190 +1 x167 x191 +1 x168 x192 +1 x169 x172 -1 x169 x190 +1 x170 x173 -1 x170 x191 +1 x171 x174 -1 x171 x192 +1 x172 x175 +1 x173 x176 +1 x174 x177 -1 x175 x178 -1 x176 x179 -1 x177 x180 +1 x178 x181 +1 x179 x182 +1 x180 x183 -1 x181 x184 -1 x182 x185 -1 x183 x186 +1 x184 x187 +1 x185 x188 +1 x186 x189 +1 x187 x190 +1 x188 x191 +1 x189 x192 ;
+1 x1 +1 x2 +1 x3 = 1 ;
+1 x4 +1 x5 +1 x6 = 1 ;
+1 x7 +1 x8 +1 x9 = 1 ;
+1 x10 +1 x11 +1 x12 = 1 ;
+1 x13 +1 x14 +1 x15 = 1 ;
+1 x16 +1 x17 +1 x18 = 1 ;
+1 x19 +1 x20 +1 x21 = 1 ;
+1 x22 +1 x23 +1 x24 = 1 ;
+1 x25 +1 x26 +1 x27 = 1 ;
+1 x28 +1 x29 +1 x30 = 1 ;
+1 x31 +1 x32 +1 x33 = 1 ;
+1 x34 +1 x35 +1 x36 = 1 ;
+1 x37 +1 x38 +1 x39 = 1 ;
+1 x40 +1 x41 +1 x42 = 1 ;
+1 x43 +1 x44 +1 x45 = 1 ;
+1 x46 +1 x47 +1 x48 = 1 ;
+1 x49 +1 x50 +1 x51 = 1 ;
+1 x52 +1 x53 +1 x54 = 1 ;
+1 x55 +1 x56 +1 x57 = 1 ;
+1 x58 +1 x59 +1 x60 = 1 ;
+1 x61 +1 x62 +1 x63 = 1 ;
+1 x64 +1 x65 +1 x66 = 1 ;
+1 x67 +1 x68 +1 x69 = 1 ;
+1 x70 +1 x71 +1 x72 = 1 ;
+1 x73 +1 x74 +1 x75 = 1 ;
+1 x76 +1 x77 +1 x78 = 1 ;
+1 x79 +1 x80 +1 x81 = 1 ;
+1 x82 +1 x83 +1 x84 = 1 ;
+1 x85 +1 x86 +1 x87 = 1 ;
+1 x88 +1 x89 +1 x90 = 1 ;
+1 x91 +1 x92 +1 x93 = 1 ;
+1 x94 +1 x95 +1 x96 = 1 ;
+1 x97 +1 x98 +1 x99 = 1 ;
+1 x100 +1 x101 +1 x102 = 1 ;
+1 x103 +1 x104 +1 x105 = 1 ;
+1 x106 +1 x107 +1 x108 = 1 ;
+1 x109 +1 x110 +1 x111 = 1 ;
+1 x112 +1 x113 +1 x114 = 1 ;
+1 x115 +1 x116 +1 x117 = 1 ;
+1 x118 +1 x119 +1 x120 = 1 ;
+1 x121 +1 x122 +1 x123 = 1 ;
+1 x124 +1 x125 +1 x126 = 1 ;
+1 x127 +1 x128 +1 x129 = 1 ;
+1 x130 +1 x131 +1 x132 = 1 ;
+1 x133 +1 x134 +1 x135 = 1 ;
+1 x136 +1 x137 +1 x138 = 1 ;
+1 x139 +1 x140 +1 x141 = 1 ;
+1 x142 +1 x143 +1 x144 = 1 ;
+1 x145 +1 x146 +1 x147 = 1 ;
+1 x148 +1 x149 +1 x150 = 1 ;
+1 x151 +1 x152 +1 x153 = 1 ;
+1 x154 +1 x155 +1 x156 = 1 ;
+1 x157 +1 x158 +1 x159 = 1 ;
+1 x160 +1 x161 +1 x162 = 1 ;
+1 x163 +1 x164 +1 x165 = 1 ;
+1 x166 +1 x167 +1 x168 = 1 ;
+1 x169 +1 x170 +1 x171 = 1 ;
+1 x172 +1 x173 +1 x174 = 1 ;
+1 x175 +1 x176 +1 x177 = 1 ;
+1 x178 +1 x179 +1 x180 = 1 ;
+1 x181 +1 x182 +1 x183 = 1 ;
+1 x184 +1 x185 +1 x186 = 1 ;
+1 x187 +1 x188 +1 x189 = 1 ;
+1 x190 +1 x191 +1 x192 = 1 ;
